# Solution for model GasLib-40
# Objective value = 1.2705582340265929e+01
loadshed[innode_1] 0
loadshed[innode_2] 0
loadshed[innode_3] 0
loadshed[innode_4] 0
loadshed[innode_5] 0
loadshed[innode_6] 0
loadshed[innode_7] 0
loadshed[innode_8] 0
loadshed[source_1] -1.5432401127634843e-01
loadshed[source_2] 1.0528311481698971e-02
loadshed[source_3] 2.2416485670203956e-01
loadshed[sink_1] 0
loadshed[sink_2] 0
loadshed[sink_3] 0
loadshed[sink_4] 0
loadshed[sink_5] 0
loadshed[sink_6] 0
loadshed[sink_7] 0
loadshed[sink_8] 0
loadshed[sink_9] 0
loadshed[sink_10] 0
loadshed[sink_11] 0
loadshed[sink_12] 7.7690185010543256e-01
loadshed[sink_13] 0
loadshed[sink_14] 0
loadshed[sink_15] 0
loadshed[sink_16] 0
loadshed[sink_17] 0
loadshed[sink_18] 0
loadshed[sink_19] 0
loadshed[sink_20] 0
loadshed[sink_21] 0
loadshed[sink_22] 0
loadshed[sink_23] 0
loadshed[sink_24] 0
loadshed[sink_25] 0
loadshed[sink_26] 0
loadshed[sink_27] 0
loadshed[sink_28] 0
loadshed[sink_29] 0
flow[source_1,sink_3] 1.8248740358823659e+02
flow[innode_1,sink_16] 1.6354166666666970e+01
flow[innode_6,sink_13] -8.1728266470693853e+00
flow[sink_13,sink_14] -2.4526993313736053e+01
flow[sink_14,sink_10] -4.0881159980402721e+01
flow[sink_25,sink_26] 1.7704595244188553e+02
flow[sink_26,sink_9] 1.5083608432640159e+02
flow[sink_9,sink_18] 1.3448191765973493e+02
flow[sink_26,sink_4] 9.8557014488177970e+00
flow[sink_4,sink_20] -6.4984652178488886e+00
flow[sink_18,sink_6] 1.1812775099306828e+02
flow[sink_25,innode_8] -1.4977907025490023e+02
flow[sink_6,sink_7] 6.9065250993067366e+01
flow[sink_6,sink_22] 3.2708333333333641e+01
flow[sink_7,sink_24] 3.6356917659734073e+01
flow[sink_22,sink_1] 1.6354166666666970e+01
flow[sink_24,sink_21] 2.0002750993067405e+01
flow[sink_21,sink_12] 3.6485843264007385e+00
flow[sink_7,sink_5] 1.6354166666667368e+01
flow[sink_5,sink_17] 0
flow[sink_17,sink_4] 0
flow[sink_17,sink_8] -1.6354166666672256e+01
flow[sink_3,sink_23] 16.3541666666697
flow[sink_8,sink_20] -3.2708333333338928e+01
flow[sink_25,sink_20] 5.5560965217854459e+01
flow[sink_25,sink_15] -9.1009187424437116e+01
flow[sink_15,sink_29] -6.0187481428558307e+01
flow[sink_29,sink_28] 1.6354166666667879e+01
flow[sink_29,sink_2] 6.3530039329212158e+01
flow[sink_2,sink_15] 4.7175872662545487e+01
flow[sink_29,innode_7] -156.425854091105
flow[innode_4,sink_19] 4.7688550150655743e+01
flow[sink_19,innode_3] 4.3892126418454225e+01
flow[innode_4,innode_5] 7.4963443163080839e+01
flow[sink_27,innode_5] -7.4963443163080839e+01
flow[sink_27,sink_19] 5.8609276496414168e+01
flow[sink_10,sink_11] 3.2708333333333641e+01
flow[sink_10,innode_2] -46.0515335619488
flow[sink_10,innode_3] -4.3892126418454225e+01
flow[innode_6,sink_25] 8.1728266470693853e+00
flow[sink_11,innode_1] 1.6354166666666970e+01
flow[sink_19,innode_2] 46.0515335619488
flow[source_3,innode_4] 1.2265199331373658e+02
flow[source_2,innode_7] 156.425854091105
flow[sink_3,innode_8] 1.4977907025490023e+02
pressure[innode_1] 7.6495550266863191e+01
pressure[innode_2] 79.0812653222786
pressure[innode_3] 7.8984071178569053e+01
pressure[innode_4] 81.01325
pressure[innode_5] 8.0961686190957835e+01
pressure[innode_6] 7.4624681539239049e+01
pressure[innode_7] 81.01325
pressure[innode_8] 80.4032643225195
pressure[source_1] 81.01325
pressure[source_2] 81.01325
pressure[source_3] 81.01325
pressure[sink_1] 4.3006113257510577e+01
pressure[sink_2] 7.5220183606435270e+01
pressure[sink_3] 80.4032643225195
pressure[sink_4] 6.0902359692182245e+01
pressure[sink_5] 3.7357519571510323e+01
pressure[sink_6] 4.5107190867897948e+01
pressure[sink_7] 4.4159089598405039e+01
pressure[sink_8] 5.9099806469601042e+01
pressure[sink_9] 5.3127510137926535e+01
pressure[sink_10] 7.6647251574466736e+01
pressure[sink_11] 7.6495550266863191e+01
pressure[sink_12] 1.01325
pressure[sink_13] 7.4669736966738128e+01
pressure[sink_14] 7.4713630110510934e+01
pressure[sink_15] 7.5066164779586927e+01
pressure[sink_16] 7.5473900432045511e+01
pressure[sink_17] 5.8482721274187270e+01
pressure[sink_18] 4.8261553531948472e+01
pressure[sink_19] 79.0812653222786
pressure[sink_20] 6.1379117316777780e+01
pressure[sink_21] 2.3116159911313936e+00
pressure[sink_22] 4.4069882399865584e+01
pressure[sink_23] 8.0238546310859718e+01
pressure[sink_24] 2.5331278736074796e+00
pressure[sink_25] 7.4624681539239049e+01
pressure[sink_26] 62.155439082079
pressure[sink_27] 8.0339628130253260e+01
pressure[sink_28] 7.6534188927025113e+01
pressure[sink_29] 76.8294712006423
interdiction[source_1,sink_3] 0
interdiction[innode_1,sink_16] 0
interdiction[innode_6,sink_13] 0
interdiction[sink_13,sink_14] 0
interdiction[sink_14,sink_10] 0
interdiction[sink_25,sink_26] 0
interdiction[sink_26,sink_9] 0
interdiction[sink_9,sink_18] 0
interdiction[sink_26,sink_4] 0
interdiction[sink_4,sink_20] 0
interdiction[sink_18,sink_6] 0
interdiction[sink_25,innode_8] 0
interdiction[sink_6,sink_7] 0
interdiction[sink_6,sink_22] 0
interdiction[sink_7,sink_24] 0
interdiction[sink_22,sink_1] 0
interdiction[sink_24,sink_21] 0
interdiction[sink_21,sink_12] 0
interdiction[sink_7,sink_5] 0
interdiction[sink_5,sink_17] 1
interdiction[sink_17,sink_4] 1
interdiction[sink_17,sink_8] 0
interdiction[sink_3,sink_23] 0
interdiction[sink_8,sink_20] 0
interdiction[sink_25,sink_20] 0
interdiction[sink_25,sink_15] 0
interdiction[sink_15,sink_29] 0
interdiction[sink_29,sink_28] 0
interdiction[sink_29,sink_2] 0
interdiction[sink_2,sink_15] 0
interdiction[sink_29,innode_7] 0
interdiction[innode_4,sink_19] 0
interdiction[sink_19,innode_3] 0
interdiction[innode_4,innode_5] 0
interdiction[sink_27,innode_5] 0
interdiction[sink_27,sink_19] 0
interdiction[sink_10,sink_11] 0
interdiction[sink_10,innode_2] 0
interdiction[sink_10,innode_3] 0
interdiction[innode_6,sink_25] 0
interdiction[sink_11,innode_1] 0
interdiction[sink_19,innode_2] 0
interdiction[source_3,innode_4] 0
interdiction[source_2,innode_7] 0
interdiction[sink_3,innode_8] 0
WCcheckFlow[source_1,sink_3] 39
WCcheckFlow[innode_1,sink_16] 1
WCcheckFlow[innode_6,sink_13] 13
WCcheckFlow[sink_13,sink_14] 12
WCcheckFlow[sink_14,sink_10] 11
WCcheckFlow[sink_25,sink_26] 15
WCcheckFlow[sink_26,sink_9] 10
WCcheckFlow[sink_9,sink_18] 9
WCcheckFlow[sink_26,sink_4] 4
WCcheckFlow[sink_4,sink_20] 3
WCcheckFlow[sink_18,sink_6] 8
WCcheckFlow[sink_25,innode_8] -36
WCcheckFlow[sink_6,sink_7] 5
WCcheckFlow[sink_6,sink_22] 2
WCcheckFlow[sink_7,sink_24] 3
WCcheckFlow[sink_22,sink_1] 1
WCcheckFlow[sink_24,sink_21] 2
WCcheckFlow[sink_21,sink_12] 1
WCcheckFlow[sink_7,sink_5] 1
WCcheckFlow[sink_5,sink_17] 0
WCcheckFlow[sink_17,sink_4] 0
WCcheckFlow[sink_17,sink_8] -1
WCcheckFlow[sink_3,sink_23] 1
WCcheckFlow[sink_8,sink_20] -2
WCcheckFlow[sink_25,sink_20] 0
WCcheckFlow[sink_25,sink_15] 6
WCcheckFlow[sink_15,sink_29] 5
WCcheckFlow[sink_29,sink_28] 1
WCcheckFlow[sink_29,sink_2] 1
WCcheckFlow[sink_2,sink_15] 0
WCcheckFlow[sink_29,innode_7] 2
WCcheckFlow[innode_4,sink_19] -4
WCcheckFlow[sink_19,innode_3] -5
WCcheckFlow[innode_4,innode_5] 2
WCcheckFlow[sink_27,innode_5] -1
WCcheckFlow[sink_27,sink_19] 0
WCcheckFlow[sink_10,sink_11] 3
WCcheckFlow[sink_10,innode_2] 1
WCcheckFlow[sink_10,innode_3] 6
WCcheckFlow[innode_6,sink_25] -14
WCcheckFlow[sink_11,innode_1] 2
WCcheckFlow[sink_19,innode_2] 0
WCcheckFlow[source_3,innode_4] -1
WCcheckFlow[source_2,innode_7] -1
WCcheckFlow[sink_3,innode_8] 37
